p edge 320 1936
c 37589
e 0 10 1 1
e 0 120 42 3
e 0 177 13 5
e 1 63 20 7
e 1 160 44 8
e 1 203 30 9
e 1 204 7 10
e 2 114 5 13
e 2 82 18 14
e 2 126 19 15
e 2 231 35 16
e 2 93 38 17
e 2 229 44 18
e 2 213 41 19
e 2 313 47 20
e 2 5 28 21
e 2 42 46 23
e 2 130 31 24
e 2 89 2 25
e 2 67 41 26
e 2 279 21 27
e 2 314 4 28
e 2 310 6 29
e 2 88 16 30
e 2 124 14 31
e 2 83 7 33
e 2 180 35 34
e 2 265 34 35
e 2 50 38 36
e 2 73 16 37
e 2 138 29 38
e 2 144 47 39
e 2 223 2 40
e 2 243 32 41
e 2 262 28 42
e 3 204 23 43
e 3 254 25 44
e 3 259 30 45
e 3 139 42 46
e 3 289 46 47
e 3 287 49 49
e 3 52 17 50
e 3 237 1 51
e 3 236 34 52
e 3 241 5 53
e 3 92 48 54
e 3 12 27 55
e 3 261 14 56
e 3 17 43 57
e 3 4 8 58
e 3 262 45 59
e 3 203 39 60
e 3 91 6 61
e 3 169 3 62
e 3 197 13 63
e 3 154 45 64
e 3 36 31 65
e 3 313 23 66
e 3 108 16 67
e 3 21 27 68
e 3 177 48 69
e 3 283 8 70
e 3 302 13 71
e 3 308 8 72
e 4 27 4 74
e 4 58 21 75
e 4 119 34 76
e 4 197 12 77
e 5 27 47 79
e 5 36 36 80
e 5 68 13 81
e 5 203 15 82
e 6 27 21 85
e 6 59 10 86
e 6 70 26 87
e 6 177 18 89
e 7 17 33 92
e 7 104 26 94
e 7 204 13 95
e 7 212 43 96
e 8 164 4 97
e 8 173 3 98
e 8 253 1 99
e 8 70 10 101
e 8 197 30 102
e 8 212 22 103
e 8 214 34 104
e 8 245 27 105
e 9 117 1 106
e 9 120 35 108
e 9 136 21 109
e 9 158 36 110
e 9 212 4 111
e 10 193 8 112
e 10 43 1 113
e 10 51 1 114
e 10 119 4 115
e 11 28 6 118
e 11 36 1 119
e 11 37 15 120
e 11 63 25 121
e 11 140 17 123
e 12 246 34 124
e 12 158 22 126
e 12 176 24 127
e 12 203 44 128
e 13 20 9 132
e 13 21 3 133
e 13 32 39 134
e 13 158 45 135
e 13 203 20 136
e 13 205 30 137
e 14 109 31 138
e 14 27 9 139
e 14 58 21 140
e 14 59 18 141
e 14 158 8 142
e 14 204 40 143
e 15 18 24 145
e 15 43 2 147
e 15 271 33 148
e 15 204 35 149
e 15 176 49 151
e 15 193 46 152
e 15 214 29 153
e 15 222 40 154
e 15 223 3 155
e 15 226 2 156
e 16 56 32 157
e 16 295 21 158
e 16 109 5 160
e 16 138 3 162
e 16 201 4 164
e 16 216 12 165
e 16 194 2 166
e 16 33 7 167
e 16 29 5 168
e 16 28 40 170
e 16 75 9 171
e 16 299 13 172
e 16 291 24 173
e 16 217 46 174
e 16 289 27 175
e 16 171 7 176
e 16 316 41 177
e 16 42 16 179
e 16 31 34 180
e 16 68 20 181
e 16 136 10 182
e 16 222 4 183
e 16 226 17 184
e 16 243 20 185
e 16 246 25 186
e 17 160 5 187
e 17 72 18 188
e 17 127 41 189
e 17 307 9 190
e 17 102 20 192
e 17 133 7 193
e 17 208 20 194
e 17 63 48 195
e 17 172 30 196
e 17 248 18 197
e 17 50 6 198
e 17 260 2 199
e 17 199 17 200
e 17 295 15 201
e 17 27 43 202
e 17 314 21 203
e 17 78 5 204
e 17 79 18 205
e 17 66 42 206
e 17 279 34 208
e 17 68 29 209
e 17 193 47 211
e 17 200 4 212
e 17 222 41 213
e 17 254 49 214
e 18 198 31 215
e 18 249 38 216
e 18 79 2 217
e 18 265 15 218
e 18 138 27 219
e 18 114 35 220
e 18 264 45 221
e 18 188 11 222
e 18 99 29 224
e 18 298 17 225
e 18 135 24 226
e 18 160 17 227
e 18 179 35 228
e 18 255 15 229
e 18 81 38 230
e 18 217 18 231
e 18 310 20 232
e 18 32 41 233
e 18 80 22 234
e 18 27 43 235
e 18 216 16 236
e 18 252 12 237
e 18 257 3 238
e 18 271 9 239
e 18 277 18 240
e 18 283 5 241
e 18 285 38 242
e 18 286 19 243
e 19 303 1 244
e 19 38 1 245
e 19 73 19 246
e 19 92 7 247
e 19 99 1 248
e 20 270 45 250
e 20 268 24 251
e 20 116 42 252
e 20 308 16 254
e 20 130 5 255
e 20 51 21 256
e 20 43 25 258
e 20 41 8 259
e 20 74 1 260
e 20 81 10 261
e 20 106 28 262
e 20 260 6 263
e 20 127 21 264
e 20 128 18 265
e 20 135 6 266
e 20 202 41 267
e 20 54 38 268
e 20 46 44 269
e 20 45 32 270
e 20 42 48 271
e 20 171 23 272
e 20 73 3 273
e 20 132 5 274
e 20 140 33 275
e 20 217 41 276
e 20 222 7 277
e 20 255 21 278
e 21 152 12 279
e 21 192 20 280
e 21 218 22 281
e 21 58 31 282
e 21 104 20 283
e 21 36 9 284
e 21 59 25 285
e 21 247 5 286
e 21 301 30 287
e 21 45 1 289
e 21 38 29 291
e 21 198 46 292
e 21 70 19 293
e 21 157 26 294
e 21 236 4 295
e 21 44 5 297
e 21 73 18 298
e 21 275 36 299
e 21 263 41 300
e 21 28 31 301
e 21 96 28 302
e 21 140 17 303
e 21 255 4 304
e 21 287 33 305
e 21 288 47 306
e 22 87 1 307
e 22 63 1 308
e 22 98 10 309
e 22 105 1 310
e 22 136 17 311
e 22 212 12 313
e 23 109 11 314
e 23 98 17 315
e 23 274 1 316
e 23 287 30 317
e 23 288 15 318
e 23 300 3 319
e 24 98 38 321
e 24 109 17 322
e 24 208 49 324
e 24 226 19 325
e 25 300 40 326
e 25 49 23 327
e 25 243 17 330
e 25 296 13 331
e 25 301 6 332
e 26 109 31 334
e 26 187 23 336
e 26 223 21 337
e 26 289 37 338
e 26 306 11 339
e 27 231 14 340
e 27 202 13 341
e 27 208 36 342
e 27 232 3 343
e 27 230 30 344
e 27 170 8 345
e 27 278 5 346
e 27 115 17 349
e 27 85 17 350
e 27 48 44 351
e 27 180 7 352
e 27 296 2 353
e 27 227 4 354
e 27 287 29 355
e 27 223 41 356
e 27 68 5 357
e 27 132 24 358
e 27 306 44 359
e 27 308 30 360
e 27 309 18 361
e 27 311 41 362
e 27 315 15 363
e 28 125 47 364
e 28 124 49 365
e 28 80 15 366
e 28 278 7 367
e 28 138 39 368
e 28 65 46 369
e 28 273 41 371
e 28 287 48 372
e 28 193 3 373
e 28 236 29 374
e 28 263 19 375
e 28 121 38 376
e 28 89 25 377
e 28 288 11 378
e 28 93 21 379
e 28 103 19 380
e 28 247 44 381
e 28 167 2 382
e 28 101 20 383
e 28 132 39 384
e 28 140 12 385
e 28 176 15 386
e 28 177 14 387
e 28 224 24 388
e 29 306 5 389
e 29 68 45 390
e 29 69 1 391
e 30 304 1 394
e 30 119 5 396
e 30 176 11 397
e 30 187 16 398
e 30 193 29 399
e 31 260 1 400
e 31 136 34 401
e 31 223 31 402
e 31 245 20 403
e 31 287 31 405
e 32 255 4 406
e 32 196 7 407
e 32 301 2 408
e 32 309 3 409
e 32 187 18 410
e 32 96 24 411
e 32 166 7 412
e 32 256 6 413
e 32 249 19 414
e 32 250 6 416
e 32 279 10 417
e 32 40 2 418
e 32 65 35 419
e 32 182 22 420
e 32 269 24 421
e 32 63 33 422
e 32 121 14 423
e 32 276 1 424
e 32 53 48 425
e 32 305 33 426
e 32 168 22 427
e 32 59 37 428
e 32 144 37 429
e 32 271 1 430
e 32 302 27 431
e 32 306 38 432
e 33 70 24 434
e 33 144 15 435
e 33 197 18 436
e 34 255 43 437
e 34 98 19 440
e 34 119 47 441
e 34 205 26 443
e 35 77 2 444
e 35 36 3 445
e 35 63 38 446
e 35 98 27 448
e 35 197 24 449
e 36 62 6 450
e 36 208 4 451
e 36 222 38 452
e 36 250 20 453
e 36 274 34 454
e 36 211 37 455
e 36 77 5 457
e 36 180 43 458
e 36 195 5 459
e 36 309 20 460
e 36 104 45 461
e 36 150 20 462
e 36 166 33 463
e 36 124 4 464
e 36 231 11 465
e 36 89 3 466
e 36 291 24 467
e 36 283 13 468
e 36 39 9 469
e 36 37 13 470
e 36 76 33 471
e 36 160 3 472
e 36 212 1 473
e 36 226 28 474
e 37 248 27 476
e 37 110 18 477
e 37 83 13 478
e 37 134 45 479
e 37 41 33 480
e 37 182 36 481
e 37 316 20 482
e 37 66 12 483
e 37 175 30 484
e 37 81 13 485
e 37 214 1 486
e 37 288 42 487
e 37 244 14 488
e 37 68 8 489
e 37 74 6 490
e 37 224 43 491
e 37 317 17 492
e 37 310 20 493
e 37 133 42 494
e 37 263 29 495
e 37 230 35 496
e 37 38 31 497
e 37 109 29 498
e 37 120 48 499
e 37 136 35 500
e 37 158 4 501
e 37 219 21 502
e 38 62 48 503
e 38 63 47 504
e 38 109 35 505
e 38 243 11 506
e 38 296 29 507
e 38 209 46 508
e 38 112 40 509
e 38 44 15 510
e 38 45 26 511
e 38 257 15 513
e 38 174 6 514
e 38 306 30 515
e 38 273 42 517
e 38 58 8 518
e 38 259 43 519
e 38 189 5 520
e 38 295 2 521
e 38 180 31 523
e 38 49 48 524
e 38 160 11 525
e 38 227 49 526
e 38 300 26 527
e 38 308 11 528
e 39 296 45 529
e 39 120 28 531
e 39 187 10 533
e 39 309 15 534
e 40 215 1 535
e 40 296 2 537
e 40 311 3 538
e 41 119 14 540
e 41 146 46 541
e 41 177 49 542
e 41 311 21 543
e 42 177 45 546
e 42 197 8 547
e 43 54 1 548
e 43 260 1 550
e 44 58 11 552
e 44 214 1 555
e 45 134 31 556
e 46 304 1 558
e 46 76 39 559
e 46 134 42 560
e 46 146 48 561
e 47 119 35 565
e 47 125 33 566
e 47 176 23 567
e 47 197 36 568
e 47 204 32 569
e 48 194 1 570
e 48 70 41 571
e 48 208 37 572
e 48 218 13 573
e 49 73 16 575
e 49 129 44 576
e 49 151 3 577
e 49 107 43 578
e 49 194 7 580
e 49 86 34 581
e 49 237 4 582
e 49 143 11 583
e 49 207 19 584
e 49 302 46 585
e 49 286 43 586
e 49 221 10 587
e 49 275 19 588
e 49 265 26 589
e 49 290 26 590
e 49 263 33 591
e 49 114 14 592
e 49 255 5 593
e 49 198 21 594
e 49 287 39 595
e 49 105 19 596
e 49 146 48 597
e 49 166 39 598
e 49 223 9 599
e 49 243 49 600
e 49 270 1 601
e 49 274 31 602
e 50 132 10 603
e 50 134 46 604
e 50 193 6 605
e 50 223 7 606
e 50 245 39 608
e 51 111 3 610
e 51 116 2 611
e 51 129 2 612
e 51 310 1 613
e 52 119 42 615
e 52 177 46 616
e 52 212 44 617
e 52 255 40 618
e 53 104 34 621
e 53 98 24 622
e 53 146 22 623
e 53 271 33 624
e 53 286 29 626
e 53 288 4 627
e 54 136 4 628
e 54 283 42 631
e 55 304 1 632
e 55 58 5 633
e 55 144 3 635
e 55 193 46 637
e 56 100 1 638
e 56 140 21 639
e 56 288 3 641
e 56 289 35 642
e 57 223 42 644
e 57 288 13 645
e 57 296 7 647
e 57 300 11 648
e 58 234 19 649
e 58 62 17 650
e 58 294 17 651
e 58 201 2 652
e 58 295 29 653
e 58 128 28 654
e 58 283 2 655
e 58 141 22 656
e 58 91 14 657
e 58 176 45 658
e 58 227 34 659
e 58 103 27 660
e 58 284 18 661
e 58 118 3 662
e 58 85 23 663
e 58 92 46 664
e 58 265 9 665
e 58 286 49 666
e 58 63 36 668
e 58 73 33 669
e 58 243 40 670
e 58 254 11 671
e 58 301 20 672
e 59 125 29 673
e 59 210 12 674
e 59 102 13 675
e 59 247 40 676
e 59 180 29 677
e 59 120 9 678
e 59 263 23 679
e 59 306 43 680
e 59 314 24 681
e 59 201 9 683
e 59 301 45 684
e 59 288 47 685
e 59 101 43 686
e 59 281 15 687
e 59 205 10 688
e 59 127 6 689
e 59 289 3 690
e 59 140 3 691
e 59 148 36 692
e 59 152 7 693
e 59 202 46 694
e 59 283 29 695
e 59 302 17 696
e 59 309 31 697
e 60 161 4 698
e 60 160 41 702
e 60 223 45 703
e 61 76 38 706
e 61 119 23 707
e 61 132 25 708
e 61 161 7 709
e 61 195 1 710
e 61 246 48 711
e 62 170 7 712
e 62 289 30 713
e 62 301 44 714
e 63 277 15 715
e 63 212 13 716
e 63 249 36 717
e 63 100 11 718
e 63 150 2 719
e 63 301 29 720
e 63 149 16 721
e 63 274 8 722
e 63 273 46 723
e 63 234 3 724
e 63 184 41 725
e 63 183 5 726
e 63 197 7 727
e 63 246 47 728
e 63 118 3 729
e 63 258 11 730
e 63 70 35 731
e 63 187 24 732
e 63 245 44 733
e 63 302 23 734
e 63 309 26 735
e 63 317 35 736
e 64 158 24 737
e 64 120 17 739
e 64 138 39 740
e 65 73 7 743
e 65 92 8 744
e 66 218 27 746
e 66 243 20 747
e 66 301 31 748
e 66 309 15 749
e 67 88 1 751
e 67 255 20 752
e 67 296 2 753
e 68 81 23 754
e 68 163 16 755
e 68 305 24 756
e 68 122 8 757
e 68 284 4 758
e 68 272 25 759
e 68 221 14 760
e 68 310 24 761
e 68 277 3 762
e 68 295 10 763
e 68 138 38 764
e 68 296 20 765
e 68 121 39 766
e 68 256 33 767
e 68 119 45 768
e 68 99 47 769
e 68 69 5 770
e 68 215 24 771
e 68 132 9 772
e 68 140 42 773
e 68 228 8 774
e 69 112 6 775
e 69 285 19 776
e 70 257 13 777
e 70 268 9 778
e 70 89 13 779
e 70 144 4 780
e 70 208 7 781
e 70 255 9 782
e 70 258 35 784
e 70 73 23 785
e 70 259 49 786
e 70 312 37 788
e 70 178 16 789
e 70 217 1 790
e 70 205 49 791
e 70 152 15 792
e 70 288 28 793
e 70 97 35 794
e 70 125 8 795
e 70 161 31 796
e 70 197 20 797
e 70 227 4 798
e 70 289 23 799
e 71 253 1 800
e 71 118 38 801
e 71 214 1 802
e 71 220 1 803
e 71 227 10 804
e 72 98 27 805
e 73 173 11 808
e 73 168 17 809
e 73 155 25 811
e 73 99 30 812
e 73 76 19 813
e 73 165 1 814
e 73 237 29 815
e 73 145 3 816
e 73 162 17 817
e 73 243 5 818
e 73 186 14 819
e 73 170 6 820
e 73 98 48 822
e 73 104 37 823
e 73 161 30 824
e 73 214 33 825
e 73 227 25 826
e 74 307 1 827
e 74 76 31 828
e 74 225 1 830
e 75 109 33 832
e 75 125 1 833
e 75 176 34 834
e 76 185 27 836
e 76 122 2 837
e 76 208 39 838
e 76 245 3 839
e 76 189 37 840
e 76 224 23 841
e 76 165 5 842
e 76 111 18 843
e 76 136 34 844
e 76 282 11 846
e 76 238 28 847
e 76 166 12 848
e 76 313 42 849
e 76 119 19 850
e 76 255 30 851
e 76 180 15 852
e 76 254 42 853
e 76 223 10 854
e 76 94 4 855
e 76 120 23 856
e 76 138 21 857
e 76 203 35 858
e 76 212 41 859
e 76 277 22 860
e 77 119 4 862
e 77 134 6 863
e 77 138 1 864
e 77 166 5 865
e 78 234 1 866
e 78 119 1 867
e 78 132 19 868
e 78 250 1 870
e 79 109 2 872
e 79 193 12 873
e 79 212 20 874
e 80 187 43 876
e 80 193 20 877
e 80 214 14 878
e 81 117 1 879
e 81 136 33 880
e 81 166 3 881
e 81 222 43 883
e 82 118 5 885
e 82 161 1 887
e 82 203 47 888
e 82 226 38 889
e 83 226 9 892
e 84 234 1 894
e 84 98 29 895
e 84 109 24 896
e 84 136 28 897
e 84 226 15 898
e 85 118 26 899
e 85 226 35 900
e 86 173 1 901
e 86 160 33 903
e 86 177 9 904
e 86 214 4 905
e 87 104 41 906
e 87 203 34 907
e 87 226 32 908
e 87 227 20 909
e 88 204 14 911
e 88 245 4 912
e 88 246 1 913
e 88 313 1 914
e 89 119 24 915
e 89 246 40 916
e 89 254 42 917
e 89 274 12 918
e 90 119 49 921
e 90 222 32 922
e 90 277 44 923
e 90 285 44 924
e 90 286 41 925
e 90 287 25 926
e 91 161 33 927
e 91 285 42 929
e 91 287 36 930
e 92 122 44 931
e 92 150 12 932
e 92 169 12 933
e 92 168 35 934
e 92 277 21 935
e 92 213 38 937
e 92 130 28 938
e 92 146 22 939
e 92 275 12 940
e 92 103 29 941
e 92 211 3 942
e 92 171 5 943
e 92 114 26 944
e 92 118 8 945
e 92 229 3 946
e 92 295 21 947
e 92 197 44 948
e 92 138 6 949
e 92 227 9 950
e 92 256 23 951
e 92 271 44 952
e 92 285 15 953
e 92 286 12 954
e 93 102 1 955
e 93 132 19 956
e 93 134 3 957
e 93 158 16 959
e 94 144 3 961
e 94 160 24 962
e 94 187 39 963
e 94 271 8 964
e 94 285 35 965
e 95 125 17 967
e 95 132 36 968
e 95 289 29 971
e 95 311 7 972
e 96 109 9 973
e 96 134 34 974
e 96 222 11 975
e 96 223 25 976
e 97 288 22 980
e 97 289 6 981
e 97 296 35 982
e 97 300 39 983
e 98 120 10 985
e 98 282 6 986
e 98 186 18 987
e 98 254 47 988
e 98 260 4 989
e 98 106 37 990
e 98 99 31 991
e 98 145 3 992
e 98 235 48 993
e 98 237 2 994
e 98 250 11 995
e 98 148 8 996
e 98 299 38 997
e 98 125 34 998
e 98 127 12 999
e 98 187 19 1000
e 98 218 40 1001
e 98 244 23 1002
e 98 288 29 1003
e 98 289 42 1004
e 100 119 8 1006
e 100 176 17 1007
e 100 221 1 1008
e 101 285 10 1009
e 101 176 12 1010
e 101 120 42 1011
e 101 158 27 1013
e 101 170 29 1014
e 101 243 12 1015
e 102 262 1 1016
e 102 206 1 1017
e 103 260 1 1018
e 103 109 20 1019
e 103 277 42 1020
e 104 221 9 1021
e 104 108 33 1022
e 104 273 44 1023
e 104 314 32 1024
e 104 315 44 1025
e 104 191 31 1026
e 104 237 35 1027
e 104 213 42 1028
e 104 228 28 1029
e 104 229 22 1030
e 104 199 40 1032
e 104 281 14 1034
e 104 215 34 1035
e 104 251 15 1036
e 104 274 17 1037
e 104 307 13 1038
e 104 132 15 1039
e 104 140 44 1040
e 104 158 44 1041
e 104 166 9 1042
e 104 187 17 1043
e 105 158 31 1044
e 105 205 22 1045
e 105 208 1 1046
e 106 161 32 1047
e 106 214 11 1049
e 106 218 3 1050
e 107 226 33 1053
e 107 246 43 1054
e 107 255 1 1055
e 107 271 38 1056
e 107 274 36 1057
e 108 134 15 1058
e 108 253 11 1060
e 108 220 2 1062
e 108 146 15 1063
e 108 204 15 1064
e 108 226 37 1065
e 108 246 35 1066
e 108 255 38 1067
e 109 158 17 1068
e 109 202 43 1069
e 109 317 6 1070
e 109 318 34 1071
e 109 159 13 1072
e 109 118 25 1073
e 109 160 1 1074
e 109 227 42 1075
e 109 315 27 1076
e 109 296 17 1077
e 109 124 27 1078
e 109 113 9 1079
e 109 226 35 1080
e 109 274 10 1081
e 109 277 19 1082
e 109 283 5 1083
e 109 285 44 1084
e 110 187 45 1087
e 110 227 27 1088
e 111 118 34 1089
e 111 138 9 1090
e 111 177 1 1091
e 111 187 21 1092
e 111 243 3 1093
e 111 271 21 1094
e 112 187 33 1095
e 112 243 44 1096
e 112 255 38 1097
e 112 277 26 1098
e 112 286 32 1099
e 112 287 29 1100
e 113 187 17 1102
e 113 277 36 1104
e 113 286 31 1105
e 114 218 3 1107
e 115 123 1 1108
e 115 223 43 1110
e 115 277 36 1111
e 115 286 4 1112
e 116 118 27 1113
e 116 204 11 1114
e 116 286 15 1115
e 116 288 40 1116
e 117 304 1 1118
e 117 170 7 1119
e 117 259 1 1120
e 118 179 2 1121
e 118 283 5 1122
e 118 156 13 1123
e 118 307 23 1124
e 118 239 15 1125
e 118 240 21 1127
e 118 272 18 1128
e 118 144 11 1129
e 118 189 17 1130
e 118 187 32 1131
e 118 299 9 1132
e 118 256 24 1133
e 118 181 15 1136
e 118 134 46 1137
e 118 218 31 1138
e 118 223 10 1139
e 118 243 2 1140
e 118 288 33 1141
e 119 248 6 1143
e 119 249 15 1144
e 119 239 16 1145
e 119 300 20 1146
e 119 303 32 1147
e 119 243 24 1148
e 119 228 26 1149
e 119 120 4 1150
e 119 166 27 1151
e 119 287 11 1152
e 119 296 5 1153
e 119 302 22 1154
e 120 149 23 1155
e 120 286 36 1157
e 120 308 32 1158
e 120 210 27 1159
e 120 207 3 1160
e 120 221 13 1161
e 120 203 45 1162
e 120 131 38 1163
e 120 160 2 1164
e 120 150 13 1165
e 120 232 29 1166
e 120 183 24 1167
e 120 264 2 1168
e 120 208 30 1169
e 120 223 30 1170
e 120 277 43 1171
e 120 300 37 1172
e 120 302 31 1173
e 121 220 1 1174
e 121 177 32 1175
e 122 138 49 1176
e 123 199 1 1179
e 123 138 14 1180
e 123 197 7 1181
e 123 205 1 1182
e 124 218 46 1183
e 124 146 42 1185
e 124 214 43 1186
e 124 243 28 1187
e 124 300 19 1188
e 124 302 28 1189
e 125 229 35 1190
e 125 175 18 1191
e 125 233 19 1192
e 125 202 43 1193
e 125 253 15 1194
e 125 167 14 1195
e 125 284 9 1197
e 125 196 13 1198
e 125 181 10 1199
e 125 279 41 1200
e 125 316 32 1201
e 125 186 16 1202
e 125 154 2 1203
e 125 153 30 1204
e 125 228 38 1205
e 125 171 20 1206
e 125 218 42 1207
e 125 300 3 1208
e 125 302 13 1209
e 125 308 12 1210
e 125 309 7 1211
e 126 218 37 1213
e 126 283 25 1214
e 126 287 12 1215
e 127 208 37 1216
e 128 251 1 1217
e 128 146 17 1218
e 128 160 12 1219
e 129 203 33 1221
e 129 204 22 1222
e 129 208 42 1223
e 131 132 47 1227
e 131 203 27 1228
e 131 222 27 1229
e 131 227 30 1230
e 132 254 33 1231
e 132 309 8 1232
e 132 285 31 1234
e 132 196 48 1235
e 132 186 43 1236
e 132 299 31 1237
e 132 200 42 1238
e 132 133 27 1239
e 132 151 44 1240
e 132 208 34 1241
e 132 227 8 1242
e 132 245 45 1243
e 132 286 19 1244
e 132 287 45 1245
e 133 138 5 1246
e 133 144 37 1247
e 133 161 6 1248
e 134 217 19 1250
e 134 137 26 1251
e 134 317 34 1252
e 134 296 12 1253
e 134 141 7 1254
e 134 161 1 1256
e 134 159 28 1257
e 134 197 41 1258
e 134 194 8 1259
e 134 259 37 1260
e 134 288 12 1261
e 134 222 38 1262
e 134 287 10 1264
e 134 300 30 1265
e 134 302 18 1266
e 134 308 23 1267
e 134 309 27 1268
e 135 176 9 1270
e 135 300 4 1271
e 135 302 35 1272
e 136 268 24 1273
e 136 261 33 1274
e 136 181 43 1275
e 136 216 21 1276
e 136 177 36 1277
e 136 262 2 1278
e 136 240 32 1279
e 136 306 38 1280
e 136 256 5 1281
e 136 303 20 1282
e 136 298 20 1283
e 136 215 30 1284
e 136 311 23 1285
e 136 279 38 1286
e 136 139 34 1287
e 136 312 38 1288
e 136 158 46 1289
e 136 246 30 1290
e 136 300 15 1291
e 136 302 1 1292
e 136 308 41 1293
e 137 293 1 1294
e 137 177 11 1295
e 137 203 38 1296
e 138 200 40 1299
e 138 174 12 1300
e 138 289 42 1301
e 138 176 1 1302
e 138 211 7 1303
e 138 265 13 1305
e 138 154 26 1306
e 138 266 23 1308
e 138 274 42 1309
e 138 167 30 1310
e 138 161 35 1311
e 138 227 25 1312
e 138 255 42 1313
e 138 300 33 1314
e 138 306 30 1315
e 139 308 33 1316
e 139 176 12 1317
e 139 214 13 1318
e 140 219 40 1320
e 140 264 35 1321
e 140 245 13 1322
e 140 296 38 1323
e 140 305 17 1324
e 140 317 16 1325
e 140 284 13 1326
e 140 280 32 1327
e 140 177 28 1328
e 140 310 34 1329
e 140 151 10 1330
e 140 316 38 1331
e 140 244 33 1332
e 140 265 5 1333
e 140 174 29 1335
e 140 203 17 1336
e 140 226 44 1337
e 140 252 19 1338
e 140 274 4 1339
e 140 286 38 1340
e 140 300 29 1341
e 141 165 1 1342
e 141 184 2 1343
e 141 314 1 1345
e 142 166 2 1347
e 142 197 3 1348
e 142 308 17 1350
e 142 309 42 1351
e 143 218 30 1353
e 143 274 27 1354
e 143 277 40 1355
e 144 179 44 1356
e 144 220 2 1358
e 144 166 23 1359
e 144 230 26 1360
e 144 223 22 1362
e 144 267 24 1364
e 144 186 33 1365
e 144 258 40 1366
e 144 181 26 1367
e 144 172 13 1368
e 144 151 31 1369
e 144 218 4 1370
e 144 227 25 1371
e 144 277 22 1372
e 144 283 42 1373
e 144 288 37 1374
e 144 297 17 1375
e 145 216 1 1377
e 146 151 11 1379
e 146 182 24 1380
e 146 211 47 1381
e 146 158 26 1382
e 146 298 17 1383
e 146 300 47 1384
e 146 197 7 1386
e 146 166 7 1387
e 146 249 46 1389
e 146 232 35 1390
e 146 309 9 1391
e 146 301 38 1392
e 146 208 26 1393
e 146 222 36 1394
e 146 246 32 1395
e 146 296 21 1396
e 146 302 8 1397
e 147 166 4 1399
e 147 218 41 1400
e 147 309 36 1402
e 147 311 14 1403
e 148 204 37 1405
e 148 277 40 1406
e 149 187 42 1409
e 149 271 6 1410
e 149 288 5 1411
e 150 214 26 1412
e 152 212 22 1414
e 152 222 2 1416
e 153 212 5 1418
e 153 243 8 1419
e 153 245 18 1420
e 154 194 2 1421
e 154 212 19 1423
e 155 246 15 1424
e 155 271 43 1425
e 155 289 43 1426
e 155 300 29 1427
e 156 222 2 1429
e 156 271 6 1430
e 156 308 36 1431
e 157 177 4 1432
e 157 271 3 1433
e 157 302 18 1434
e 157 309 46 1435
e 158 257 16 1436
e 158 266 22 1437
e 158 285 18 1438
e 158 170 4 1439
e 158 221 25 1440
e 158 258 40 1441
e 158 315 28 1442
e 158 165 23 1443
e 158 241 15 1444
e 158 290 13 1445
e 158 207 22 1446
e 158 254 39 1447
e 158 176 45 1448
e 158 193 8 1449
e 158 311 14 1450
e 158 317 5 1451
e 159 277 13 1452
e 159 278 1 1453
e 159 306 41 1454
e 159 308 32 1455
e 160 285 36 1456
e 160 311 30 1457
e 160 262 36 1458
e 160 261 31 1460
e 160 237 13 1461
e 160 197 15 1462
e 160 184 23 1464
e 160 268 38 1465
e 160 312 3 1466
e 160 174 17 1467
e 160 183 38 1468
e 160 212 47 1469
e 160 223 18 1470
e 160 246 39 1471
e 160 254 47 1472
e 160 277 47 1473
e 160 289 27 1474
e 161 318 42 1475
e 161 170 31 1476
e 161 301 16 1477
e 161 162 2 1478
e 161 177 21 1479
e 161 252 2 1480
e 161 208 4 1481
e 161 292 25 1482
e 161 243 12 1483
e 161 163 41 1484
e 161 269 25 1485
e 161 164 1 1486
e 161 178 3 1487
e 161 246 39 1488
e 161 226 40 1489
e 161 274 22 1490
e 161 311 3 1491
e 161 317 30 1492
e 162 195 1 1493
e 162 205 31 1494
e 162 296 7 1496
e 163 176 42 1497
e 163 245 41 1499
e 163 283 9 1500
e 163 300 4 1501
e 164 219 1 1502
e 164 289 12 1504
e 164 301 4 1505
e 165 248 3 1506
e 166 203 43 1507
e 166 312 23 1508
e 166 198 46 1509
e 166 239 1 1510
e 166 216 18 1511
e 166 167 27 1512
e 166 193 32 1513
e 166 261 22 1515
e 166 183 28 1516
e 166 266 30 1517
e 166 179 29 1518
e 166 283 16 1519
e 166 292 7 1520
e 166 300 8 1521
e 166 309 34 1522
e 166 311 39 1523
e 167 193 44 1525
e 168 206 1 1526
e 168 205 14 1527
e 168 222 6 1528
e 169 195 1 1529
e 169 176 19 1530
e 169 203 20 1531
e 169 222 30 1532
e 170 267 18 1533
e 170 247 6 1534
e 170 299 48 1536
e 170 254 30 1537
e 170 205 40 1538
e 170 265 30 1539
e 170 297 49 1540
e 170 226 9 1541
e 170 282 21 1542
e 170 204 15 1543
e 170 245 24 1544
e 170 315 32 1545
e 170 227 14 1546
e 170 230 10 1547
e 170 209 32 1548
e 170 238 12 1549
e 170 287 33 1550
e 170 288 38 1551
e 170 296 9 1552
e 170 306 7 1553
e 170 309 35 1554
e 171 197 21 1555
e 172 204 36 1558
e 172 227 3 1559
e 173 204 7 1560
e 173 282 1 1561
e 174 204 40 1563
e 174 212 46 1564
e 175 203 33 1565
e 175 226 6 1566
e 175 255 42 1567
e 175 274 17 1569
e 176 262 39 1571
e 176 287 46 1572
e 176 222 28 1573
e 176 230 21 1574
e 176 197 28 1575
e 176 177 42 1576
e 176 306 8 1577
e 176 302 28 1578
e 176 216 40 1579
e 176 208 32 1580
e 176 214 14 1581
e 176 255 23 1582
e 176 277 42 1583
e 176 283 23 1584
e 177 214 3 1585
e 177 280 12 1586
e 177 302 21 1587
e 177 306 10 1588
e 177 261 43 1589
e 177 178 36 1590
e 177 233 41 1591
e 177 271 16 1592
e 177 283 8 1593
e 177 285 2 1594
e 177 311 29 1595
e 178 197 1 1596
e 178 243 11 1597
e 179 193 39 1599
e 179 205 25 1600
e 179 302 49 1601
e 179 311 10 1602
e 181 187 7 1603
e 181 208 27 1604
e 182 251 1 1605
e 183 277 45 1606
e 183 285 2 1607
e 184 288 24 1608
e 184 293 1 1609
e 185 296 27 1610
e 185 302 38 1611
e 185 311 24 1612
e 186 218 22 1614
e 187 206 14 1615
e 187 188 27 1616
e 187 231 35 1617
e 187 241 49 1618
e 187 202 17 1620
e 187 311 45 1621
e 187 285 4 1622
e 187 208 49 1623
e 187 227 41 1624
e 187 254 14 1625
e 187 271 6 1626
e 187 296 37 1627
e 187 302 38 1628
e 188 253 1 1630
e 188 255 33 1631
e 189 208 16 1632
e 189 212 6 1633
e 190 274 17 1634
e 190 285 11 1635
e 190 296 13 1636
e 190 301 23 1637
e 190 302 32 1638
e 191 255 28 1639
e 191 274 39 1640
e 191 308 20 1642
e 192 208 32 1643
e 192 301 28 1644
e 193 297 37 1645
e 193 206 13 1646
e 193 283 27 1647
e 193 212 24 1648
e 193 276 7 1649
e 193 301 6 1650
e 193 246 13 1651
e 193 222 1 1653
e 193 231 39 1654
e 193 197 3 1655
e 195 233 1 1656
e 195 298 2 1657
e 196 201 1 1658
e 197 222 25 1659
e 197 274 25 1660
e 197 249 17 1661
e 197 308 41 1662
e 197 212 35 1663
e 197 204 4 1664
e 197 218 13 1665
e 197 243 4 1666
e 197 286 34 1667
e 197 296 9 1668
e 198 212 16 1669
e 198 290 2 1670
e 199 245 9 1671
e 199 309 36 1672
e 200 218 39 1673
e 201 293 1 1676
e 203 205 20 1677
e 203 264 24 1678
e 203 272 20 1679
e 203 292 22 1680
e 203 266 48 1681
e 203 285 41 1682
e 203 277 33 1683
e 203 218 16 1684
e 203 246 47 1685
e 203 283 45 1686
e 203 286 2 1687
e 203 308 22 1688
e 204 281 12 1689
e 204 296 8 1690
e 204 294 23 1691
e 204 222 44 1692
e 204 297 14 1693
e 204 213 18 1694
e 204 301 20 1696
e 204 291 38 1697
e 204 205 16 1698
e 204 218 24 1699
e 204 308 35 1700
e 204 311 33 1701
e 204 317 35 1702
e 205 291 35 1704
e 205 226 31 1705
e 205 262 27 1706
e 205 220 6 1707
e 205 285 35 1709
e 205 224 18 1710
e 205 306 23 1711
e 205 208 39 1713
e 205 254 23 1714
e 205 266 20 1715
e 206 247 1 1716
e 207 272 1 1717
e 207 257 1 1718
e 208 248 38 1719
e 208 282 37 1721
e 208 315 20 1722
e 208 218 9 1723
e 208 223 29 1724
e 208 226 14 1725
e 208 246 3 1726
e 208 255 13 1727
e 209 271 40 1730
e 209 301 8 1732
e 210 251 1 1733
e 210 301 23 1734
e 211 306 20 1736
e 212 261 5 1737
e 212 316 39 1738
e 212 299 26 1739
e 212 214 26 1740
e 212 317 24 1741
e 212 274 4 1742
e 212 291 48 1743
e 212 302 45 1744
e 212 306 15 1745
e 212 308 43 1746
e 213 246 17 1747
e 213 218 23 1748
e 213 302 14 1749
e 213 317 19 1750
e 214 311 10 1751
e 214 250 29 1752
e 214 261 18 1753
e 214 238 23 1754
e 214 268 7 1755
e 214 233 9 1756
e 214 246 41 1757
e 214 235 3 1758
e 214 289 8 1759
e 215 276 1 1760
e 217 223 42 1761
e 217 271 30 1762
e 218 271 9 1763
e 218 245 10 1764
e 218 280 4 1765
e 218 309 29 1766
e 218 274 39 1767
e 218 283 21 1768
e 218 286 41 1769
e 218 289 6 1770
e 218 306 13 1771
e 219 311 3 1773
e 222 276 28 1774
e 222 307 12 1776
e 222 251 23 1777
e 222 298 1 1778
e 222 286 29 1779
e 222 308 24 1780
e 222 317 35 1781
e 223 252 11 1783
e 223 270 42 1784
e 223 245 34 1785
e 223 296 8 1786
e 223 298 19 1787
e 223 309 44 1788
e 225 226 6 1790
e 225 285 22 1792
e 225 288 45 1793
e 225 296 8 1794
e 226 261 47 1795
e 226 286 15 1796
e 226 278 3 1797
e 226 227 47 1798
e 226 313 46 1799
e 226 301 47 1800
e 226 306 27 1801
e 226 317 14 1802
e 227 303 1 1803
e 227 274 37 1804
e 227 228 42 1805
e 227 308 42 1806
e 227 254 12 1807
e 227 232 41 1808
e 227 291 44 1809
e 227 246 8 1810
e 227 286 36 1811
e 227 317 23 1812
e 229 283 39 1814
e 231 304 1 1816
e 232 306 39 1817
e 232 254 35 1818
e 233 285 5 1819
e 234 236 1 1820
e 235 245 36 1822
e 235 301 40 1823
e 235 317 41 1824
e 238 245 7 1827
e 238 255 18 1828
e 238 277 21 1829
e 239 277 19 1831
e 240 243 26 1833
e 241 246 27 1835
e 241 285 30 1836
e 242 286 32 1837
e 242 300 28 1838
e 242 309 19 1839
e 242 311 17 1840
e 243 252 20 1841
e 243 262 47 1842
e 243 267 2 1843
e 243 254 7 1844
e 243 309 39 1845
e 245 285 21 1846
e 245 283 29 1847
e 245 271 9 1848
e 245 289 32 1849
e 245 252 9 1850
e 245 296 29 1851
e 245 255 29 1852
e 246 305 32 1853
e 246 308 9 1854
e 246 316 26 1855
e 246 317 40 1856
e 246 318 23 1857
e 246 271 1 1858
e 246 311 11 1859
e 248 319 1 1860
e 252 254 28 1861
e 254 306 25 1863
e 254 301 12 1864
e 254 293 15 1865
e 254 288 13 1866
e 254 317 40 1867
e 254 318 43 1868
e 254 255 14 1869
e 254 274 26 1870
e 254 283 1 1871
e 254 286 43 1872
e 254 300 21 1873
e 254 302 21 1874
e 255 318 26 1875
e 255 294 23 1877
e 255 288 4 1878
e 255 301 12 1879
e 256 289 30 1880
e 265 274 19 1883
e 267 274 27 1884
e 267 283 33 1885
e 267 286 37 1886
e 268 287 9 1887
e 268 288 11 1888
e 269 277 43 1889
e 269 285 22 1890
e 269 287 42 1891
e 269 289 26 1892
e 271 317 1 1894
e 271 280 24 1895
e 271 286 14 1896
e 271 274 46 1897
e 271 306 34 1898
e 271 308 5 1899
e 271 309 6 1900
e 271 311 34 1901
e 272 296 37 1902
e 273 306 15 1903
e 274 288 35 1904
e 274 306 46 1905
e 274 311 38 1906
e 274 317 26 1907
e 275 317 45 1908
e 277 285 39 1909
e 277 287 7 1910
e 283 287 4 1913
e 285 317 47 1914
e 285 302 13 1915
e 286 306 27 1916
e 286 287 31 1917
e 286 301 47 1918
e 287 294 5 1919
e 287 288 31 1920
e 289 301 23 1922
e 292 309 1 1923
e 294 317 16 1924
e 296 301 31 1925
e 296 308 19 1926
e 300 301 45 1927
e 300 309 41 1928
e 301 308 35 1929
e 302 311 45 1930
e 304 311 29 1931
e 306 317 25 1932
e 306 311 21 1933
e 308 317 49 1934
e 309 317 19 1935
